[NpcPos]	Flags	Index	PosX	PosY	Type	IsRangeCheck
0	0	1	54	238	3	1
1	0	2	63	230	2	1
2	0	3	48	233	5	1
3	0	4	67	219	1	1
4	0	5	77	218	1	1
5	0	6	71	232	4	1
6	0	7	40	217	1	1
7	0	8	57	241	7	0
8	0	9	51	242	7	0
9	0	10	58	205	7	0
10	0	11	76	152	6	1
11	0	12	3	230	6	1
12	0	13	36	215	1	1
13	1	15	133	16	6	1
14	1	16	233	205	6	1
15	1	17	202	33	6	1
16	0	18	54	241	6	1
17	0	19	66	180	6	1
18	0	20	135	102	6	1
19	0	21	120	124	6	1
20	0	22	127	158	6	1
21	0	23	169	168	6	1
22	0	24	157	172	6	1
23	0	25	212	31	6	1
24	0	26	173	52	6	1
25	0	27	229	62	6	1
26	0	28	247	71	6	1
27	0	29	245	41	6	1
28	0	30	240	154	7	0
29	0	31	193	166	7	0
30	0	32	210	33	7	0
31	0	33	189	204	7	0
32	0	34	203	228	7	0
33	0	35	160	225	7	0
34	0	36	153	174	7	0
35	0	37	123	221	7	0
36	0	38	69	50	7	0
37	0	39	32	47	7	0
38	0	40	17	23	7	0
39	0	41	10	219	7	0
40	0	42	131	10	7	0
41	0	43	243	146	7	0
42	0	44	240	151	7	0
43	0	45	240	148	7	0
44	0	46	38	232	6	1
45	0	47	134	187	7	1
46	0	48	240	20	7	0
47	0	49	208	217	7	0
48	0	50	0	0	1	0
49	0	51	0	0	1	0
50	1	71	236	6	6	1
51	1	72	223	64	7	0
52	1	73	249	64	7	0
53	1	74	137	102	7	0
54	1	75	189	199	7	0
55	1	76	68	22	6	1
56	0	14	42	233	1	1
57	1	80	23	24	6	1
58	0	236	33	217	1	0
59	0	85	58	217	1	0
60	0	86	29	216	1	0
61	0	200	63	220	2	0
62	0	52	52	221	1	0
63	0	252	52	219	1	0
65	0	70	31	216	1	0
66	0	54	52	215	1	0
67	0	60	52	213	1	0
68	0	234	52	221	1	0
69	0	232	50	223	1	0
70	0	233	48	223	1	0
71	0	235	52	219	1	0
						
[WarpLst]	NpcsIdx	NSetIdx	TargetIdx	LV	Fee	Type
0	11	0	218	50	0	0
1	12	0	222	50	0	0
2	15	0	166	1	0	2
3	15	1	105	0	0	1
4	15	2	182	1	0	2
5	15	3	4148	0	0	1
6	16	0	167	1	0	2
7	16	1	183	1	0	2
8	17	0	171	1	0	2
9	17	1	293	95	0	2
10	17	2	184	1	0	2
11	17	3	203	0	0	1
11	17	4	4255	100	0	2
11	17	5	4257	140	0	2
12	18	0	98	0	0	1
13	18	1	101	0	0	1
14	18	2	103	0	0	1
15	18	3	104	0	0	1
16	18	4	107	0	0	1
17	18	5	108	0	0	1
18	18	6	109	0	0	1
19	18	7	202	0	0	1
20	18	8	213	0	0	1
21	18	9	217	0	0	1
22	18	10	4167	0	0	1
23	18	11	4168	0	0	1
24	18	12	4169	0	0	1
25	18	13	4218	0	0	1
26	20	0	272	0	0	1
27	21	0	97	0	0	1
28	22	0	99	0	0	1
29	23	0	100	0	0	1
30	24	0	102	0	0	1
31	26	0	199	0	0	1
32	27	0	4121	110	0	2
33	27	1	4122	110	0	2
34	27	2	4123	110	0	2
35	27	3	4124	110	0	2
36	46	0	4196	0	0	1
37	46	1	4197	0	0	1
38	46	2	4198	0	0	1
39	46	3	4199	0	0	1
40	46	4	4200	0	0	1
41	46	5	4201	0	0	1
42	71	0	4097	135	0	2
42	71	1	4268	200	0	2
43	76	0	4146	0	0	1
44	27	4	4269	190	0	2
45	80	0	4270	190	0	2
53	80	1	4274	150	0	2
54	71	2	4277	190	0	2
						
[SkillLst]	NSetIdx	NpcsIdx	SkillIdx	SkillLv	SkillBook	
0	0	2	1	1	1847	
1	1	2	2	1	1848	
2	2	2	209	1	1967	
3	3	2	3	1	1849	
4	4	2	4	1	1850	
5	5	2	5	1	1851	
6	6	2	10	1	1856	
7	7	2	11	1	1857	
8	8	2	16	1	1862	
9	9	2	17	1	1863	
10	10	2	203	1	1961	
11	11	2	208	1	1966	
12	12	2	12	1	1858	
13	13	2	13	1	1859	
14	14	2	18	1	1864	
15	15	2	19	1	1865	
16	16	2	22	1	1868	
17	17	2	200	1	1958	
18	18	2	23	1	1869	
19	19	2	24	1	1870	
20	20	2	25	1	1871	
21	21	2	6	1	1852	
22	22	2	7	1	1853	
23	23	2	8	1	1854	
24	24	2	9	1	1855	
25	25	2	30	1	1876	
26	26	2	31	1	1877	
27	27	2	32	1	1878	
28	28	2	33	1	1879	
29	29	2	204	1	1962	
30	30	2	14	1	1860	
31	31	2	15	1	1861	
32	32	2	20	1	1866	
33	33	2	21	1	1867	
34	34	2	26	1	1872	
35	35	2	27	1	1873	
36	36	2	28	1	1874	
37	37	2	29	1	1875	
38	38	2	68	1	1901	
39	39	2	38	1	1884	
40	40	2	201	1	1959	
41	41	2	211	1	1969	
42	42	2	39	1	1885	
43	43	2	40	1	1886	
44	44	2	41	1	1887	
45	45	2	42	1	1888	
46	46	2	216	1	1974	
47	47	2	71	1	1903	
48	48	2	43	1	1889	
49	49	2	44	1	1890	
50	50	2	45	1	1891	
51	51	2	46	1	1892	
52	52	2	70	1	1902	
53	53	2	205	1	1963	
54	54	2	469	1	2137	
55	55	2	51	1	1893	
56	56	2	52	1	1894	
57	57	2	53	1	1895	
58	58	2	54	1	1896	
59	59	2	206	1	1964	
60	60	2	212	1	1970	
61	61	2	468	1	2136	
62	62	2	34	1	1880	
63	63	2	35	1	1881	
64	64	2	36	1	1882	
65	65	2	37	1	1883	
66	66	2	202	1	1960	
67	67	2	210	1	1968	
68	68	2	55	1	1897	
69	69	2	56	1	1898	
70	70	2	57	1	1899	
71	71	2	58	1	1900	
72	72	2	213	1	1971	
73	73	2	214	1	1972	
74	76	2	219	1	1977	
75	77	2	63	1	2311	
76	78	2	64	1	2312	
77	79	2	65	1	2313	
78	80	2	66	1	2314	
79	81	2	207	1	1965	
80	82	2	215	1	1973	
81	83	2	220	1	1978	
82	84	2	221	1	1979	
83	85	2	100	1	1904	
84	86	2	128	1	1932	
85	87	2	129	1	1933	
86	88	2	148	1	1946	
87	89	2	157	1	1955	
88	90	2	230	1	1988	
89	91	2	252	1	2010	
90	92	2	424	1	2107	
91	93	2	101	1	1905	
92	94	2	102	1	1906	
93	95	2	103	1	1907	
94	96	2	425	1	2108	
95	97	2	426	1	2109	
96	98	2	427	1	2110	
97	99	2	104	1	1908	
98	100	2	105	1	1909	
99	101	2	106	1	1910	
100	102	2	428	1	2111	
101	103	2	429	1	2112	
102	104	2	430	1	2113	
103	105	2	107	1	1911	
104	106	2	130	1	1934	
105	107	2	131	1	1935	
106	108	2	149	1	1947	
107	109	2	237	1	1995	
108	110	2	238	1	1996	
109	111	2	248	1	2006	
110	112	2	256	1	2014	
111	113	2	431	1	2114	
112	114	2	108	1	1912	
113	115	2	109	1	1913	
114	116	2	110	1	1914	
115	117	2	432	1	2115	
116	118	2	433	1	2116	
117	119	2	434	1	2117	
118	120	2	253	1	2011	
119	121	2	111	1	1915	
120	122	2	112	1	1916	
121	123	2	113	1	1917	
122	124	2	435	1	2118	
123	125	2	436	1	2119	
124	126	2	437	1	2120	
125	127	2	114	1	1918	
126	128	2	132	1	1936	
127	129	2	133	1	1937	
128	130	2	150	1	1948	
129	131	2	158	1	1956	
130	132	2	231	1	1989	
131	134	2	438	1	2121	
132	135	2	257	1	2015	
133	136	2	115	1	1919	
134	137	2	116	1	1920	
135	138	2	117	1	1921	
136	139	2	439	1	2122	
137	140	2	440	1	2123	
138	141	2	441	1	2124	
139	142	2	239	1	1997	
140	143	2	240	1	1998	
141	144	2	118	1	1922	
142	145	2	119	1	1923	
143	146	2	120	1	1924	
144	147	2	442	1	2125	
145	148	2	443	1	2126	
146	149	2	444	1	2127	
147	150	2	255	1	2013	
148	151	2	121	1	1925	
149	152	2	134	1	1938	
150	153	2	135	1	1939	
151	154	2	151	1	1949	
152	155	2	232	1	1990	
153	156	2	241	1	1999	
154	157	2	249	1	2007	
155	158	2	445	1	2128	
156	159	2	122	1	1926	
157	160	2	123	1	1927	
158	161	2	124	1	1928	
159	163	2	446	1	2129	
160	164	2	447	1	2130	
161	165	2	448	1	2131	
162	166	2	125	1	1929	
163	167	2	126	1	1930	
164	168	2	127	1	1931	
165	169	2	254	1	2012	
166	170	2	449	1	2132	
167	171	2	450	1	2133	
168	172	2	451	1	2134	
169	173	2	136	1	1940	
170	174	2	137	1	1941	
171	175	2	152	1	1950	
172	176	2	159	1	1957	
173	177	2	233	1	1991	
174	178	2	243	1	2001	
175	179	2	250	1	2008	
176	180	2	260	1	2018	
177	181	2	242	1	2000	
178	182	2	244	1	2002	
179	183	2	138	1	1942	
180	184	2	153	1	1951	
181	185	2	223	1	1981	
182	186	2	234	1	1992	
183	187	2	236	1	1994	
184	188	2	245	1	2003	
185	189	2	246	1	2004	
186	190	2	261	1	2019	
187	191	2	140	1	1944	
188	192	2	154	1	1952	
189	193	2	229	1	1987	
190	194	2	272	1	2025	
191	195	2	262	1	2020	
192	196	2	139	1	1943	
193	197	2	155	1	1953	
194	198	2	235	1	1993	
195	199	2	251	1	2009	
196	200	2	273	1	2026	
197	201	2	247	1	2005	
198	202	2	263	1	2021	
199	203	2	141	1	1945	
200	204	2	156	1	1954	
201	205	2	224	1	1982	
202	206	2	167	1	2315	
203	207	2	168	1	2316	
204	208	2	228	1	1986	
205	209	2	225	1	1983	
206	210	2	226	1	1984	
207	211	2	227	1	1985	
208	212	2	269	1	2022	
209	213	2	270	1	2023	
210	214	2	271	1	2024	
211	215	2	274	1	2027	
212	216	2	300	1	2028	
213	217	2	301	1	2038	
214	218	2	300	2	2029	
215	219	2	301	2	2039	
216	220	2	305	1	2072	
217	221	2	306	1	2081	
218	222	2	300	3	2030	
219	223	2	301	3	2040	
220	224	2	302	1	2048	
221	225	2	303	1	2056	
222	226	2	304	1	2064	
223	227	2	305	2	2073	
224	228	2	306	2	2082	
225	229	2	300	4	2031	
226	230	2	301	4	2041	
227	231	2	302	2	2049	
228	232	2	303	2	2057	
229	233	2	304	2	2065	
230	234	2	305	3	2074	
231	235	2	306	3	2083	
232	236	2	300	5	2032	
233	237	2	301	5	2042	
234	238	2	302	3	2050	
235	239	2	303	3	2058	
236	240	2	304	3	2066	
237	241	2	305	4	2075	
238	242	2	306	4	2084	
239	243	2	300	6	2033	
240	244	2	301	6	2043	
241	245	2	302	4	2051	
242	246	2	303	4	2059	
243	247	2	304	4	2067	
244	248	2	305	5	2076	
245	249	2	306	5	2085	
246	250	2	300	7	2034	
247	251	2	301	7	2044	
248	252	2	302	5	2052	
249	253	2	303	5	2060	
250	254	2	304	5	2068	
251	255	2	305	6	2077	
252	256	2	306	6	2086	
253	257	2	300	8	2035	
254	258	2	301	8	2045	
255	259	2	302	6	2053	
256	260	2	303	6	2061	
257	261	2	304	6	2069	
258	262	2	305	7	2078	
259	263	2	306	7	2087	
260	264	2	310	1	2090	
261	265	2	311	1	2093	
262	266	2	312	1	2096	
263	267	2	313	1	2099	
264	268	2	314	1	2102	
265	269	2	300	9	2036	
266	270	2	301	9	2046	
267	271	2	302	7	2054	
268	272	2	303	7	2062	
269	273	2	304	7	2070	
270	274	2	305	8	2079	
271	275	2	306	8	2088	
272	276	2	310	2	2091	
273	277	2	311	2	2094	
274	278	2	312	2	2097	
275	279	2	313	2	2100	
276	280	2	314	2	2103	
277	281	2	300	10	2037	
278	282	2	301	10	2047	
279	283	2	302	8	2055	
280	284	2	303	8	2063	
281	285	2	304	8	2071	
282	286	2	305	9	2080	
283	287	2	306	9	2089	
284	288	2	310	3	2092	
285	289	2	311	3	2095	
286	290	2	312	3	2098	
